WARNING: for repeatability, setting FPU to use double precision
============================[ Problem Statistics ]=============================
|                                                                             |
|  Number of variables:        643735                                         |
|  Number of clauses:         1619903                                         |
|  Parse time:                   0.52 s                                       |
|                                                                             |
============================[ Search Statistics ]==============================
| Conflicts |          ORIGINAL         |          LEARNT          | Progress |
|           |    Vars  Clauses Literals |    Limit  Clauses Lit/Cl |          |
===============================================================================
|       100 |  376706  1575530  3528566 |   577694      100     16 | 41.481 % |
|       250 |  376706  1575530  3528566 |   635463      250     38 | 41.481 % |
|       475 |  376706  1575530  3528566 |   699010      475     65 | 41.481 % |
|       812 |  376706  1575530  3528566 |   768911      812     51 | 41.481 % |
|      1318 |  376706  1575530  3528566 |   845802     1318     49 | 41.481 % |
|      2077 |  376706  1575530  3528566 |   930382     2077     56 | 41.481 % |
|      3216 |  376706  1575530  3528566 |  1023420     3216     83 | 41.481 % |
|      4924 |  376706  1575530  3528566 |  1125762     4924     86 | 41.481 % |
|      7486 |  376706  1575530  3528566 |  1238339     7486    129 | 41.481 % |
|     11330 |  376706  1575530  3528566 |  1362173    11330    130 | 41.481 % |
|     17096 |  376706  1575530  3528566 |  1498390    17096    136 | 41.481 % |
|     25745 |  376706  1575530  3528566 |  1648229    25745    136 | 41.481 % |
|     38719 |  376706  1575530  3528566 |  1813052    38719    132 | 41.481 % |
|     58180 |  376706  1575530  3528566 |  1994357    58180    141 | 41.481 % |
|     87372 |  376706  1575530  3528566 |  2193793    87372    137 | 41.481 % |
|    131161 |  376706  1575530  3528566 |  2413172   131161    137 | 41.481 % |
===============================================================================
restarts              : 445
conflicts             : 164295         (683 /sec)
decisions             : 1164950        (0.00 % random) (4845 /sec)
propagations          : 721907029      (3002404 /sec)
conflict literals     : 22256115       (17.17 % deleted)
Memory used           : 262.00 MB
CPU time              : 240.443 s

SATISFIABLE
